p tw 144 26641 2 
1 73 
1 76 
1 77 
1 80 
1 82 
1 83 
1 85 
1 87 
1 89 
1 92 
1 93 
1 96 
1 98 
1 99 
1 102 
1 104 
1 105 
1 108 
1 109 
1 111 
1 114 
1 116 
1 117 
1 120 
1 122 
1 123 
1 126 
1 128 
1 129 
1 132 
1 133 
1 135 
1 137 
1 139 
1 141 
1 144 
2 74 
2 75 
2 78 
2 79 
2 81 
2 84 
2 86 
2 88 
2 90 
2 91 
2 94 
2 95 
2 97 
2 100 
2 101 
2 103 
2 106 
2 107 
2 110 
2 112 
2 113 
2 115 
2 118 
2 119 
2 121 
2 124 
2 125 
2 127 
2 130 
2 131 
2 134 
2 136 
2 138 
2 140 
2 142 
2 143 
3 4 
3 74 
3 75 
3 77 
3 79 
3 82 
3 83 
3 86 
3 87 
3 90 
3 92 
3 93 
3 96 
3 98 
3 99 
3 101 
3 103 
3 106 
3 108 
3 109 
3 111 
3 113 
3 115 
3 118 
3 119 
3 121 
3 124 
3 126 
3 128 
3 130 
3 132 
3 134 
3 135 
3 138 
3 139 
3 142 
3 144 
4 73 
4 76 
4 78 
4 80 
4 81 
4 84 
4 85 
4 88 
4 89 
4 91 
4 94 
4 95 
4 97 
4 100 
4 102 
4 104 
4 105 
4 107 
4 110 
4 112 
4 114 
4 116 
4 117 
4 120 
4 122 
4 123 
4 125 
4 127 
4 129 
4 131 
4 133 
4 136 
4 137 
4 140 
4 141 
4 143 
5 6 
5 74 
5 75 
5 77 
5 80 
5 81 
5 83 
5 85 
5 88 
5 89 
5 91 
5 93 
5 96 
5 97 
5 100 
5 102 
5 103 
5 105 
5 107 
5 109 
5 111 
5 113 
5 115 
5 117 
5 119 
5 121 
5 123 
5 126 
5 128 
5 129 
5 131 
5 133 
5 135 
5 138 
5 140 
5 142 
5 143 
6 73 
6 76 
6 78 
6 79 
6 82 
6 84 
6 86 
6 87 
6 90 
6 92 
6 94 
6 95 
6 98 
6 99 
6 101 
6 104 
6 106 
6 108 
6 110 
6 112 
6 114 
6 116 
6 118 
6 120 
6 122 
6 124 
6 125 
6 127 
6 130 
6 132 
6 134 
6 136 
6 137 
6 139 
6 141 
6 144 
7 8 
7 73 
7 76 
7 77 
7 80 
7 82 
7 84 
7 86 
7 87 
7 90 
7 92 
7 94 
7 95 
7 98 
7 99 
7 102 
7 104 
7 106 
7 107 
7 109 
7 112 
7 113 
7 115 
7 118 
7 119 
7 122 
7 123 
7 126 
7 127 
7 129 
7 131 
7 133 
7 135 
7 138 
7 140 
7 142 
7 143 
8 74 
8 75 
8 78 
8 79 
8 81 
8 83 
8 85 
8 88 
8 89 
8 91 
8 93 
8 96 
8 97 
8 100 
8 101 
8 103 
8 105 
8 108 
8 110 
8 111 
8 114 
8 116 
8 117 
8 120 
8 121 
8 124 
8 125 
8 128 
8 130 
8 132 
8 134 
8 136 
8 137 
8 139 
8 141 
8 144 
9 10 
9 74 
9 76 
9 77 
9 80 
9 81 
9 84 
9 86 
9 87 
9 89 
9 91 
9 93 
9 95 
9 98 
9 100 
9 102 
9 104 
9 106 
9 108 
9 110 
9 111 
9 114 
9 115 
9 117 
9 119 
9 121 
9 124 
9 125 
9 127 
9 130 
9 131 
9 133 
9 135 
9 138 
9 139 
9 141 
9 144 
10 73 
10 75 
10 78 
10 79 
10 82 
10 83 
10 85 
10 88 
10 90 
10 92 
10 94 
10 96 
10 97 
10 99 
10 101 
10 103 
10 105 
10 107 
10 109 
10 112 
10 113 
10 116 
10 118 
10 120 
10 122 
10 123 
10 126 
10 128 
10 129 
10 132 
10 134 
10 136 
10 137 
10 140 
10 142 
10 143 
11 12 
11 73 
11 76 
11 78 
11 79 
11 82 
11 83 
11 86 
11 88 
11 90 
11 91 
11 93 
11 95 
11 98 
11 100 
11 102 
11 103 
11 106 
11 107 
11 109 
11 111 
11 114 
11 116 
11 117 
11 120 
11 121 
11 124 
11 126 
11 127 
11 129 
11 132 
11 134 
11 135 
11 138 
11 140 
11 141 
11 143 
12 74 
12 75 
12 77 
12 80 
12 81 
12 84 
12 85 
12 87 
12 89 
12 92 
12 94 
12 96 
12 97 
12 99 
12 101 
12 104 
12 105 
12 108 
12 110 
12 112 
12 113 
12 115 
12 118 
12 119 
12 122 
12 123 
12 125 
12 128 
12 130 
12 131 
12 133 
12 136 
12 137 
12 139 
12 142 
12 144 
13 14 
13 73 
13 76 
13 77 
13 79 
13 81 
13 84 
13 85 
13 87 
13 89 
13 92 
13 93 
13 96 
13 97 
13 100 
13 101 
13 104 
13 106 
13 108 
13 110 
13 112 
13 113 
13 116 
13 118 
13 120 
13 121 
13 124 
13 126 
13 128 
13 129 
13 131 
13 134 
13 135 
13 138 
13 140 
13 141 
13 143 
14 74 
14 75 
14 78 
14 80 
14 82 
14 83 
14 86 
14 88 
14 90 
14 91 
14 94 
14 95 
14 98 
14 99 
14 102 
14 103 
14 105 
14 107 
14 109 
14 111 
14 114 
14 115 
14 117 
14 119 
14 122 
14 123 
14 125 
14 127 
14 130 
14 132 
14 133 
14 136 
14 137 
14 139 
14 142 
14 144 
15 16 
15 74 
15 75 
15 77 
15 80 
15 82 
15 84 
15 85 
15 88 
15 89 
15 92 
15 93 
15 95 
15 98 
15 99 
15 101 
15 104 
15 105 
15 107 
15 109 
15 112 
15 114 
15 116 
15 117 
15 120 
15 121 
15 124 
15 126 
15 127 
15 130 
15 131 
15 134 
15 136 
15 138 
15 139 
15 142 
15 143 
16 73 
16 76 
16 78 
16 79 
16 81 
16 83 
16 86 
16 87 
16 90 
16 91 
16 94 
16 96 
16 97 
16 100 
16 102 
16 103 
16 106 
16 108 
16 110 
16 111 
16 113 
16 115 
16 118 
16 119 
16 122 
16 123 
16 125 
16 128 
16 129 
16 132 
16 133 
16 135 
16 137 
16 140 
16 141 
16 144 
17 18 
17 74 
17 76 
17 78 
17 80 
17 82 
17 84 
17 85 
17 88 
17 90 
17 92 
17 94 
17 96 
17 98 
17 100 
17 102 
17 103 
17 106 
17 108 
17 110 
17 112 
17 114 
17 116 
17 117 
17 119 
17 121 
17 123 
17 126 
17 128 
17 130 
17 131 
17 134 
17 135 
17 137 
17 140 
17 142 
17 144 
18 73 
18 75 
18 77 
18 79 
18 81 
18 83 
18 86 
18 87 
18 89 
18 91 
18 93 
18 95 
18 97 
18 99 
18 101 
18 104 
18 105 
18 107 
18 109 
18 111 
18 113 
18 115 
18 118 
18 120 
18 122 
18 124 
18 125 
18 127 
18 129 
18 132 
18 133 
18 136 
18 138 
18 139 
18 141 
18 143 
19 20 
19 74 
19 75 
19 78 
19 80 
19 82 
19 84 
19 85 
19 88 
19 90 
19 91 
19 94 
19 95 
19 97 
19 99 
19 101 
19 104 
19 106 
19 108 
19 110 
19 111 
19 114 
19 115 
19 118 
19 120 
19 121 
19 123 
19 126 
19 128 
19 129 
19 132 
19 133 
19 135 
19 138 
19 139 
19 141 
19 143 
20 73 
20 76 
20 77 
20 79 
20 81 
20 83 
20 86 
20 87 
20 89 
20 92 
20 93 
20 96 
20 98 
20 100 
20 102 
20 103 
20 105 
20 107 
20 109 
20 112 
20 113 
20 116 
20 117 
20 119 
20 122 
20 124 
20 125 
20 127 
20 130 
20 131 
20 134 
20 136 
20 137 
20 140 
20 142 
20 144 
21 22 
21 74 
21 76 
21 77 
21 80 
21 82 
21 84 
21 86 
21 88 
21 90 
21 92 
21 93 
21 96 
21 97 
21 100 
21 102 
21 104 
21 105 
21 107 
21 110 
21 111 
21 114 
21 115 
21 118 
21 120 
21 122 
21 124 
21 125 
21 128 
21 129 
21 132 
21 134 
21 136 
21 138 
21 140 
21 142 
21 144 
22 73 
22 75 
22 78 
22 79 
22 81 
22 83 
22 85 
22 87 
22 89 
22 91 
22 94 
22 95 
22 98 
22 99 
22 101 
22 103 
22 106 
22 108 
22 109 
22 112 
22 113 
22 116 
22 117 
22 119 
22 121 
22 123 
22 126 
22 127 
22 130 
22 131 
22 133 
22 135 
22 137 
22 139 
22 141 
22 143 
23 24 
23 73 
23 75 
23 77 
23 80 
23 82 
23 83 
23 85 
23 87 
23 89 
23 91 
23 93 
23 95 
23 97 
23 99 
23 102 
23 103 
23 106 
23 108 
23 110 
23 112 
23 114 
23 116 
23 118 
23 119 
23 121 
23 123 
23 125 
23 127 
23 129 
23 132 
23 134 
23 136 
23 138 
23 140 
23 142 
23 144 
24 74 
24 76 
24 78 
24 79 
24 81 
24 84 
24 86 
24 88 
24 90 
24 92 
24 94 
24 96 
24 98 
24 100 
24 101 
24 104 
24 105 
24 107 
24 109 
24 111 
24 113 
24 115 
24 117 
24 120 
24 122 
24 124 
24 126 
24 128 
24 130 
24 131 
24 133 
24 135 
24 137 
24 139 
24 141 
24 143 
25 26 
25 73 
25 76 
25 77 
25 80 
25 81 
25 83 
25 86 
25 88 
25 90 
25 91 
25 94 
25 96 
25 98 
25 99 
25 101 
25 103 
25 105 
25 107 
25 110 
25 112 
25 114 
25 116 
25 118 
25 119 
25 121 
25 124 
25 126 
25 128 
25 129 
25 131 
25 133 
25 136 
25 138 
25 139 
25 141 
25 144 
26 74 
26 75 
26 78 
26 79 
26 82 
26 84 
26 85 
26 87 
26 89 
26 92 
26 93 
26 95 
26 97 
26 100 
26 102 
26 104 
26 106 
26 108 
26 109 
26 111 
26 113 
26 115 
26 117 
26 120 
26 122 
26 123 
26 125 
26 127 
26 130 
26 132 
26 134 
26 135 
26 137 
26 140 
26 142 
26 143 
27 28 
27 73 
27 75 
27 78 
27 79 
27 82 
27 83 
27 85 
27 88 
27 89 
27 92 
27 93 
27 96 
27 98 
27 100 
27 101 
27 104 
27 106 
27 107 
27 110 
27 111 
27 114 
27 115 
27 118 
27 119 
27 122 
27 123 
27 126 
27 127 
27 130 
27 131 
27 133 
27 136 
27 138 
27 140 
27 141 
27 144 
28 74 
28 76 
28 77 
28 80 
28 81 
28 84 
28 86 
28 87 
28 90 
28 91 
28 94 
28 95 
28 97 
28 99 
28 102 
28 103 
28 105 
28 108 
28 109 
28 112 
28 113 
28 116 
28 117 
28 120 
28 121 
28 124 
28 125 
28 128 
28 129 
28 132 
28 134 
28 135 
28 137 
28 139 
28 142 
28 143 
29 30 
29 73 
29 76 
29 78 
29 80 
29 81 
29 84 
29 85 
29 87 
29 89 
29 91 
29 93 
29 95 
29 98 
29 99 
29 101 
29 103 
29 105 
29 107 
29 110 
29 111 
29 114 
29 115 
29 118 
29 119 
29 122 
29 124 
29 126 
29 128 
29 130 
29 132 
29 134 
29 135 
29 137 
29 140 
29 142 
29 143 
30 74 
30 75 
30 77 
30 79 
30 82 
30 83 
30 86 
30 88 
30 90 
30 92 
30 94 
30 96 
30 97 
30 100 
30 102 
30 104 
30 106 
30 108 
30 109 
30 112 
30 113 
30 116 
30 117 
30 120 
30 121 
30 123 
30 125 
30 127 
30 129 
30 131 
30 133 
30 136 
30 138 
30 139 
30 141 
30 144 
31 32 
31 73 
31 75 
31 78 
31 80 
31 82 
31 84 
31 86 
31 87 
31 89 
31 92 
31 94 
31 96 
31 97 
31 100 
31 102 
31 103 
31 105 
31 108 
31 109 
31 111 
31 114 
31 115 
31 118 
31 119 
31 121 
31 124 
31 126 
31 127 
31 129 
31 131 
31 134 
31 136 
31 137 
31 139 
31 141 
31 143 
32 74 
32 76 
32 77 
32 79 
32 81 
32 83 
32 85 
32 88 
32 90 
32 91 
32 93 
32 95 
32 98 
32 99 
32 101 
32 104 
32 106 
32 107 
32 110 
32 112 
32 113 
32 116 
32 117 
32 120 
32 122 
32 123 
32 125 
32 128 
32 130 
32 132 
32 133 
32 135 
32 138 
32 140 
32 142 
32 144 
33 34 
33 74 
33 75 
33 78 
33 80 
33 81 
33 83 
33 86 
33 87 
33 90 
33 92 
33 93 
33 96 
33 98 
33 99 
33 101 
33 103 
33 105 
33 108 
33 110 
33 112 
33 114 
33 115 
33 117 
33 120 
33 122 
33 123 
33 125 
33 127 
33 129 
33 131 
33 134 
33 135 
33 138 
33 140 
33 141 
33 143 
34 73 
34 76 
34 77 
34 79 
34 82 
34 84 
34 85 
34 88 
34 89 
34 91 
34 94 
34 95 
34 97 
34 100 
34 102 
34 104 
34 106 
34 107 
34 109 
34 111 
34 113 
34 116 
34 118 
34 119 
34 121 
34 124 
34 126 
34 128 
34 130 
34 132 
34 133 
34 136 
34 137 
34 139 
34 142 
34 144 
35 36 
35 73 
35 76 
35 78 
35 79 
35 82 
35 84 
35 86 
35 87 
35 90 
35 91 
35 93 
35 96 
35 97 
35 99 
35 101 
35 104 
35 105 
35 108 
35 109 
35 111 
35 114 
35 116 
35 117 
35 119 
35 121 
35 123 
35 125 
35 128 
35 130 
35 131 
35 133 
35 136 
35 138 
35 140 
35 142 
35 143 
36 74 
36 75 
36 77 
36 80 
36 81 
36 83 
36 85 
36 88 
36 89 
36 92 
36 94 
36 95 
36 98 
36 100 
36 102 
36 103 
36 106 
36 107 
36 110 
36 112 
36 113 
36 115 
36 118 
36 120 
36 122 
36 124 
36 126 
36 127 
36 129 
36 132 
36 134 
36 135 
36 137 
36 139 
36 141 
36 144 
37 38 
37 74 
37 76 
37 77 
37 79 
37 81 
37 83 
37 85 
37 87 
37 90 
37 91 
37 94 
37 95 
37 98 
37 100 
37 101 
37 104 
37 105 
37 108 
37 109 
37 111 
37 114 
37 115 
37 118 
37 120 
37 121 
37 123 
37 126 
37 127 
37 129 
37 131 
37 134 
37 136 
37 137 
37 140 
37 142 
37 144 
38 73 
38 75 
38 78 
38 80 
38 82 
38 84 
38 86 
38 88 
38 89 
38 92 
38 93 
38 96 
38 97 
38 99 
38 102 
38 103 
38 106 
38 107 
38 110 
38 112 
38 113 
38 116 
38 117 
38 119 
38 122 
38 124 
38 125 
38 128 
38 130 
38 132 
38 133 
38 135 
38 138 
38 139 
38 141 
38 143 
39 40 
39 74 
39 76 
39 78 
39 80 
39 81 
39 84 
39 85 
39 87 
39 90 
39 91 
39 93 
39 96 
39 97 
39 99 
39 102 
39 103 
39 106 
39 107 
39 109 
39 111 
39 113 
39 116 
39 118 
39 120 
39 122 
39 123 
39 126 
39 127 
39 130 
39 131 
39 134 
39 136 
39 138 
39 139 
39 141 
39 144 
40 73 
40 75 
40 77 
40 79 
40 82 
40 83 
40 86 
40 88 
40 89 
40 92 
40 94 
40 95 
40 98 
40 100 
40 101 
40 104 
40 105 
40 108 
40 110 
40 112 
40 114 
40 115 
40 117 
40 119 
40 121 
40 124 
40 125 
40 128 
40 129 
40 132 
40 133 
40 135 
40 137 
40 140 
40 142 
40 143 
41 42 
41 74 
41 76 
41 78 
41 79 
41 82 
41 83 
41 85 
41 87 
41 89 
41 92 
41 94 
41 95 
41 97 
41 99 
41 102 
41 103 
41 105 
41 107 
41 109 
41 112 
41 114 
41 115 
41 118 
41 120 
41 121 
41 124 
41 125 
41 128 
41 130 
41 131 
41 133 
41 135 
41 138 
41 140 
41 141 
41 144 
42 73 
42 75 
42 77 
42 80 
42 81 
42 84 
42 86 
42 88 
42 90 
42 91 
42 93 
42 96 
42 98 
42 100 
42 101 
42 104 
42 106 
42 108 
42 110 
42 111 
42 113 
42 116 
42 117 
42 119 
42 122 
42 123 
42 126 
42 127 
42 129 
42 132 
42 134 
42 136 
42 137 
42 139 
42 142 
42 143 
43 44 
43 73 
43 76 
43 77 
43 79 
43 81 
43 83 
43 86 
43 88 
43 89 
43 92 
43 94 
43 95 
43 97 
43 99 
43 102 
43 103 
43 106 
43 108 
43 110 
43 111 
43 114 
43 115 
43 117 
43 120 
43 122 
43 123 
43 126 
43 128 
43 130 
43 131 
43 134 
43 136 
43 138 
43 139 
43 142 
43 143 
44 74 
44 75 
44 78 
44 80 
44 82 
44 84 
44 85 
44 87 
44 90 
44 91 
44 93 
44 96 
44 98 
44 100 
44 101 
44 104 
44 105 
44 107 
44 109 
44 112 
44 113 
44 116 
44 118 
44 119 
44 121 
44 124 
44 125 
44 127 
44 129 
44 132 
44 133 
44 135 
44 137 
44 140 
44 141 
44 144 
45 46 
45 74 
45 76 
45 78 
45 79 
45 81 
45 84 
45 86 
45 88 
45 89 
45 92 
45 93 
45 95 
45 97 
45 100 
45 101 
45 103 
45 105 
45 108 
45 109 
45 112 
45 114 
45 116 
45 118 
45 119 
45 122 
45 123 
45 126 
45 127 
45 129 
45 132 
45 133 
45 135 
45 138 
45 139 
45 142 
45 144 
46 73 
46 75 
46 77 
46 80 
46 82 
46 83 
46 85 
46 87 
46 90 
46 91 
46 94 
46 96 
46 98 
46 99 
46 102 
46 104 
46 106 
46 107 
46 110 
46 111 
46 113 
46 115 
46 117 
46 120 
46 121 
46 124 
46 125 
46 128 
46 130 
46 131 
46 134 
46 136 
46 137 
46 140 
46 141 
46 143 
47 48 
47 73 
47 75 
47 78 
47 79 
47 82 
47 84 
47 85 
47 87 
47 90 
47 91 
47 93 
47 95 
47 98 
47 100 
47 102 
47 103 
47 105 
47 108 
47 110 
47 112 
47 113 
47 115 
47 117 
47 120 
47 122 
47 124 
47 126 
47 128 
47 129 
47 131 
47 133 
47 136 
47 138 
47 139 
47 142 
47 144 
48 74 
48 76 
48 77 
48 80 
48 81 
48 83 
48 86 
48 88 
48 89 
48 92 
48 94 
48 96 
48 97 
48 99 
48 101 
48 104 
48 106 
48 107 
48 109 
48 111 
48 114 
48 116 
48 118 
48 119 
48 121 
48 123 
48 125 
48 127 
48 130 
48 132 
48 134 
48 135 
48 137 
48 140 
48 141 
48 143 
49 50 
49 73 
49 75 
49 77 
49 79 
49 81 
49 84 
49 85 
49 88 
49 90 
49 91 
49 94 
49 96 
49 97 
49 99 
49 102 
49 104 
49 105 
49 108 
49 109 
49 112 
49 114 
49 115 
49 117 
49 119 
49 122 
49 124 
49 126 
49 127 
49 130 
49 132 
49 134 
49 135 
49 138 
49 140 
49 141 
49 144 
50 74 
50 76 
50 78 
50 80 
50 82 
50 83 
50 86 
50 87 
50 89 
50 92 
50 93 
50 95 
50 98 
50 100 
50 101 
50 103 
50 106 
50 107 
50 110 
50 111 
50 113 
50 116 
50 118 
50 120 
50 121 
50 123 
50 125 
50 128 
50 129 
50 131 
50 133 
50 136 
50 137 
50 139 
50 142 
50 143 
51 52 
51 74 
51 75 
51 77 
51 79 
51 82 
51 83 
51 86 
51 87 
51 90 
51 91 
51 93 
51 95 
51 97 
51 100 
51 102 
51 104 
51 105 
51 107 
51 110 
51 112 
51 114 
51 116 
51 118 
51 119 
51 122 
51 123 
51 126 
51 128 
51 130 
51 131 
51 134 
51 135 
51 137 
51 139 
51 141 
51 143 
52 73 
52 76 
52 78 
52 80 
52 81 
52 84 
52 85 
52 88 
52 89 
52 92 
52 94 
52 96 
52 98 
52 99 
52 101 
52 103 
52 106 
52 108 
52 109 
52 111 
52 113 
52 115 
52 117 
52 120 
52 121 
52 124 
52 125 
52 127 
52 129 
52 132 
52 133 
52 136 
52 138 
52 140 
52 142 
52 144 
53 54 
53 73 
53 75 
53 77 
53 79 
53 81 
53 84 
53 85 
53 87 
53 90 
53 92 
53 94 
53 96 
53 98 
53 100 
53 102 
53 103 
53 105 
53 107 
53 110 
53 111 
53 114 
53 116 
53 118 
53 120 
53 121 
53 123 
53 125 
53 127 
53 130 
53 132 
53 133 
53 135 
53 138 
53 139 
53 142 
53 143 
54 74 
54 76 
54 78 
54 80 
54 82 
54 83 
54 86 
54 88 
54 89 
54 91 
54 93 
54 95 
54 97 
54 99 
54 101 
54 104 
54 106 
54 108 
54 109 
54 112 
54 113 
54 115 
54 117 
54 119 
54 122 
54 124 
54 126 
54 128 
54 129 
54 131 
54 134 
54 136 
54 137 
54 140 
54 141 
54 144 
55 56 
55 73 
55 75 
55 77 
55 80 
55 81 
55 84 
55 86 
55 87 
55 90 
55 92 
55 93 
55 95 
55 97 
55 100 
55 101 
55 103 
55 106 
55 107 
55 109 
55 112 
55 114 
55 115 
55 117 
55 120 
55 121 
55 123 
55 126 
55 128 
55 130 
55 132 
55 133 
55 136 
55 137 
55 140 
55 141 
55 144 
56 74 
56 76 
56 78 
56 79 
56 82 
56 83 
56 85 
56 88 
56 89 
56 91 
56 94 
56 96 
56 98 
56 99 
56 102 
56 104 
56 105 
56 108 
56 110 
56 111 
56 113 
56 116 
56 118 
56 119 
56 122 
56 124 
56 125 
56 127 
56 129 
56 131 
56 134 
56 135 
56 138 
56 139 
56 142 
56 143 
57 58 
57 74 
57 76 
57 78 
57 79 
57 81 
57 83 
57 85 
57 87 
57 90 
57 92 
57 93 
57 96 
57 97 
57 99 
57 102 
57 104 
57 106 
57 107 
57 110 
57 112 
57 114 
57 115 
57 117 
57 119 
57 121 
57 124 
57 126 
57 127 
57 129 
57 132 
57 133 
57 136 
57 137 
57 139 
57 142 
57 143 
58 73 
58 75 
58 77 
58 80 
58 82 
58 84 
58 86 
58 88 
58 89 
58 91 
58 94 
58 95 
58 98 
58 100 
58 101 
58 103 
58 105 
58 108 
58 109 
58 111 
58 113 
58 116 
58 118 
58 120 
58 122 
58 123 
58 125 
58 128 
58 130 
58 131 
58 134 
58 135 
58 138 
58 140 
58 141 
58 144 
59 60 
59 74 
59 75 
59 78 
59 80 
59 81 
59 83 
59 86 
59 87 
59 89 
59 91 
59 94 
59 96 
59 98 
59 100 
59 102 
59 104 
59 106 
59 108 
59 109 
59 112 
59 114 
59 116 
59 118 
59 120 
59 122 
59 124 
59 126 
59 128 
59 130 
59 132 
59 133 
59 136 
59 138 
59 140 
59 142 
59 143 
60 73 
60 76 
60 77 
60 79 
60 82 
60 84 
60 85 
60 88 
60 90 
60 92 
60 93 
60 95 
60 97 
60 99 
60 101 
60 103 
60 105 
60 107 
60 110 
60 111 
60 113 
60 115 
60 117 
60 119 
60 121 
60 123 
60 125 
60 127 
60 129 
60 131 
60 134 
60 135 
60 137 
60 139 
60 141 
60 144 
61 62 
61 74 
61 75 
61 78 
61 79 
61 81 
61 84 
61 86 
61 87 
61 89 
61 92 
61 94 
61 95 
61 98 
61 99 
61 102 
61 104 
61 105 
61 107 
61 110 
61 111 
61 113 
61 116 
61 117 
61 119 
61 121 
61 123 
61 126 
61 128 
61 129 
61 132 
61 134 
61 136 
61 138 
61 140 
61 141 
61 144 
62 73 
62 76 
62 77 
62 80 
62 82 
62 83 
62 85 
62 88 
62 90 
62 91 
62 93 
62 96 
62 97 
62 100 
62 101 
62 103 
62 106 
62 108 
62 109 
62 112 
62 114 
62 115 
62 118 
62 120 
62 122 
62 124 
62 125 
62 127 
62 130 
62 131 
62 133 
62 135 
62 137 
62 139 
62 142 
62 143 
63 64 
63 73 
63 75 
63 78 
63 80 
63 81 
63 83 
63 85 
63 87 
63 90 
63 92 
63 94 
63 95 
63 97 
63 100 
63 101 
63 104 
63 106 
63 107 
63 109 
63 111 
63 114 
63 116 
63 117 
63 119 
63 122 
63 124 
63 125 
63 128 
63 129 
63 131 
63 134 
63 135 
63 138 
63 139 
63 142 
63 144 
64 74 
64 76 
64 77 
64 79 
64 82 
64 84 
64 86 
64 88 
64 89 
64 91 
64 93 
64 96 
64 98 
64 99 
64 102 
64 103 
64 105 
64 108 
64 110 
64 112 
64 113 
64 115 
64 118 
64 120 
64 121 
64 123 
64 126 
64 127 
64 130 
64 132 
64 133 
64 136 
64 137 
64 140 
64 141 
64 143 
65 66 
65 74 
65 76 
65 77 
65 80 
65 82 
65 83 
65 85 
65 87 
65 90 
65 92 
65 94 
65 95 
65 97 
65 100 
65 101 
65 103 
65 105 
65 108 
65 110 
65 111 
65 113 
65 116 
65 117 
65 119 
65 122 
65 124 
65 126 
65 127 
65 130 
65 132 
65 133 
65 136 
65 138 
65 140 
65 141 
65 143 
66 73 
66 75 
66 78 
66 79 
66 81 
66 84 
66 86 
66 88 
66 89 
66 91 
66 93 
66 96 
66 98 
66 99 
66 102 
66 104 
66 106 
66 107 
66 109 
66 112 
66 114 
66 115 
66 118 
66 120 
66 121 
66 123 
66 125 
66 128 
66 129 
66 131 
66 134 
66 135 
66 137 
66 139 
66 142 
66 144 
67 68 
67 74 
67 76 
67 77 
67 79 
67 82 
67 84 
67 85 
67 87 
67 89 
67 91 
67 94 
67 96 
67 98 
67 100 
67 101 
67 103 
67 106 
67 107 
67 109 
67 112 
67 114 
67 115 
67 117 
67 119 
67 122 
67 123 
67 125 
67 128 
67 129 
67 132 
67 134 
67 136 
67 138 
67 139 
67 141 
67 143 
68 73 
68 75 
68 78 
68 80 
68 81 
68 83 
68 86 
68 88 
68 90 
68 92 
68 93 
68 95 
68 97 
68 99 
68 102 
68 104 
68 105 
68 108 
68 110 
68 111 
68 113 
68 116 
68 118 
68 120 
68 121 
68 124 
68 126 
68 127 
68 130 
68 131 
68 133 
68 135 
68 137 
68 140 
68 142 
68 144 
69 70 
69 73 
69 76 
69 78 
69 80 
69 82 
69 83 
69 86 
69 87 
69 89 
69 91 
69 94 
69 96 
69 97 
69 100 
69 101 
69 104 
69 105 
69 107 
69 110 
69 112 
69 113 
69 115 
69 117 
69 120 
69 121 
69 123 
69 126 
69 127 
69 130 
69 132 
69 134 
69 135 
69 138 
69 139 
69 142 
69 144 
70 74 
70 75 
70 77 
70 79 
70 81 
70 84 
70 85 
70 88 
70 90 
70 92 
70 93 
70 95 
70 98 
70 99 
70 102 
70 103 
70 106 
70 108 
70 109 
70 111 
70 114 
70 116 
70 118 
70 119 
70 122 
70 124 
70 125 
70 128 
70 129 
70 131 
70 133 
70 136 
70 137 
70 140 
70 141 
70 143 
71 72 
71 74 
71 75 
71 77 
71 79 
71 82 
71 84 
71 86 
71 87 
71 89 
71 91 
71 94 
71 96 
71 97 
71 99 
71 101 
71 103 
71 106 
71 107 
71 110 
71 111 
71 114 
71 116 
71 117 
71 120 
71 122 
71 124 
71 126 
71 127 
71 129 
71 131 
71 133 
71 135 
71 137 
71 140 
71 142 
71 144 
72 73 
72 76 
72 78 
72 80 
72 81 
72 83 
72 85 
72 88 
72 90 
72 92 
72 93 
72 95 
72 98 
72 100 
72 102 
72 104 
72 105 
72 108 
72 109 
72 112 
72 113 
72 115 
72 118 
72 119 
72 121 
72 123 
72 125 
72 128 
72 130 
72 132 
72 134 
72 136 
72 138 
72 139 
72 141 
72 143 
73 74 
75 76 
77 78 
79 80 
81 82 
83 84 
85 86 
87 88 
89 90 
91 92 
93 94 
95 96 
97 98 
99 100 
101 102 
103 104 
105 106 
107 108 
109 110 
111 112 
113 114 
115 116 
117 118 
119 120 
121 122 
123 124 
125 126 
127 128 
129 130 
131 132 
133 134 
135 136 
137 138 
139 140 
141 142 
143 144 
